Unknown
    5.44014935721810059682
  0.0 0.5 0.5
  0.5 0.0 0.5
  0.5 0.5 0.0
 2
 d
-0.125 -0.125 -0.125
 0.125  0.125  0.125
