System    =  Si
NPAR      =  2
KPAR      =  2
ALGO      =  Normal
PREC      =  Accurate
EDIFF     =  1E-07
ENCUT     =  800
ENAUG     =  900
ISMEAR    =  -5
KSPACING  =  0.08
KGAMMA    = .TRUE.
GGA       =  PE
NSW       =  0
IBRION    =  -1

NELM = 200
NELMIN = 6

ADDGRID = .TRUE.
METAGGA = R2SCAN
LMIXTAU = .TRUE.
LASPH = .TRUE.
LMAXMIX = 4
LREAL   = .FALSE.

LWAVE = FALSE
LCHARG = FALSE
LORBIT = 11
