Si
   5.4309
 0.5 0.5 0.0
 0.0 0.5 0.5
 0.5 0.0 0.5
  2 
direct
-0.125 -0.125 -0.125    
0.125   0.125  0.125
