carbon
    3.56249068728842522350
  0.0 0.5 0.5
  0.5 0.0 0.5
  0.5 0.5 0.0
 2
 d
-0.125 -0.125 -0.125
 0.125  0.125  0.125
